p cnf 19 11
e 1 0
a 2 0
e 3 0
a 4 0
e 5 0
a 6 7 8 0
e 9 10 0
a 11 0
e 12 0
a 13 0
e 14 0
a 15 0
e 16 0
a 17 0
e 18 0
a 19 0
4 -2 -16 -9 15 0
17 -8 -9 0
-3 -14 16 -1 -12 0
-16 -12 -6 0
7 -4 -19 -2 -5 0
19 -16 -8 0
-14 -3 -15 -5 17 0
5 1 -3 0
-16 17 -11 0
8 -1 2 19 12 0
16 7 -8 -18 5 0
